--- Job with_locational_instrument.gms Start 01/11/22 14:40:32 30.3.0 rc5da09e WEX-WEI x86 64bit/MS Windows
--- GAMS Parameters defined
    Input C:\Users\a.eicke\Documents\Locational-investment-signals\Three node models\with_locational_instrument.gms
    PageSize 0
    ScrDir C:\Users\a.eicke\Documents\Locational-investment-signals\Three node models\225b\
    SysDir C:\GAMS\win64\30.3\
    LogOption 3
    ErrMsg 1
    ErrorLog 99
    IDE 1
    LstTitleLeftAligned 1
GAMS 30.3.0   Copyright (C) 1987-2020 GAMS Development. All rights reserved
Licensee: Small MUD - 5 User License                     S190305:0326AO-WIN
          Hertie School of Governance GmbH, Governance of DigitalizaDC14808
--- Starting compilation
--- with_locational_instrument.gms(70) 3 Mb
--- GDXin=C:\Users\a.eicke\Documents\Locational-investment-signals\Three node models\in.gdx
--- with_locational_instrument.gms(290) 3 Mb
--- Starting execution: elapsed 0:00:00.008
--- with_locational_instrument.gms(257) 4 Mb
--- Generating MIQCP model LOCI
--- with_locational_instrument.gms(260) 6 Mb
---   1,424 rows  1,088 columns  3,952 non-zeroes
---   238 nl-code  38 nl-non-zeroes
---   286 discrete-columns
--- with_locational_instrument.gms(260) 4 Mb
--- Executing CPLEX: elapsed 0:00:00.024

IBM ILOG CPLEX   30.3.0 rc5da09e Released Mar 06, 2020 WEI x86 64bit/MS Window
--- GAMS/Cplex licensed for continuous and discrete problems.
Cplex 12.10.0.0

The search will stop after 65000000 nodes.
Reading data...
Starting Cplex...
Space for names approximately 0.08 Mb
Use option 'names no' to turn use of names off
Version identifier: 12.10.0.0 | 2019-11-26 | 843d4de2ae
CPXPARAM_Advance                                 0
CPXPARAM_Threads                                 1
CPXPARAM_Parallel                                1
CPXPARAM_MIP_Display                             4
CPXPARAM_Simplex_Limits_Iterations               2000000000
CPXPARAM_MIP_Limits_Nodes                        65000000
CPXPARAM_TimeLimit                               150000
CPXPARAM_Tune_TimeLimit                          30000
CPXPARAM_MIP_Tolerances_AbsMIPGap                0
CPXPARAM_MIP_Tolerances_MIPGap                   0.00050000000000000001
CPXPARAM_WorkDir                                 "C:\Users\a.eicke\Documents\Locational-investment-signals\Three node models\225b\"
Tried aggregator 2 times.
MIQP Presolve eliminated 498 rows and 161 columns.
MIQP Presolve modified 376 coefficients.
Aggregator did 46 substitutions.
Reduced MIQP has 880 rows, 874 columns, and 2706 nonzeros.
Reduced MIQP has 241 binaries, 0 generals, 0 SOSs, and 0 indicators.
Reduced MIQP objective Q matrix has 38 nonzeros.
Presolve time = 0.02 sec. (2.55 ticks)
Probing fixed 15 vars, tightened 64 bounds.
Probing time = 0.00 sec. (0.97 ticks)
Tried aggregator 1 time.
MIQP Presolve eliminated 30 rows and 15 columns.
MIQP Presolve modified 18 coefficients.
Reduced MIQP has 850 rows, 859 columns, and 2556 nonzeros.
Reduced MIQP has 226 binaries, 0 generals, 0 SOSs, and 0 indicators.
Reduced MIQP objective Q matrix has 38 nonzeros.
Presolve time = 0.00 sec. (1.08 ticks)
Classifier predicts products in MIQP should be linearized.
Probing fixed 21 vars, tightened 535 bounds.
Probing time = 0.00 sec. (1.66 ticks)
Clique table members: 119.
MIP emphasis: balance optimality and feasibility.
MIP search method: dynamic search.
Parallel mode: none, using 1 thread.
Tried aggregator 1 time.
QP Presolve eliminated 141 rows and 141 columns.
Aggregator did 145 substitutions.
Reduced QP has 564 rows, 573 columns, and 1888 nonzeros.
Reduced QP objective Q matrix has 38 nonzeros.
Presolve time = 0.00 sec. (0.69 ticks)
Parallel mode: none, using 1 thread for barrier

***NOTE: Found 6 dense columns.

Number of nonzeros in lower triangle of A*A' = 2751
Using Approximate Minimum Degree ordering
Total time for automatic ordering = 0.00 sec. (0.27 ticks)
Summary statistics for Cholesky factor:
  Rows in Factor            = 570
  Integer space required    = 1585
  Total non-zeros in factor = 7892
  Total FP ops to factor    = 166036
 Itn      Primal Obj        Dual Obj  Prim Inf Upper Inf  Dual Inf          
   0  -2.0624172e+06   1.1606433e+08  1.08e+05  8.40e+04  4.53e+04
   1  -1.2548671e+06   8.6887244e+07  8.00e+04  6.21e+04  3.34e+04
   2  -8.3184716e+05   6.5999251e+07  5.95e+04  4.61e+04  2.49e+04
   3  -2.3884018e+05   2.8066400e+07  2.36e+04  1.83e+04  9.89e+03
   4  -3.9532538e+04   9.8461343e+06  7.23e+03  5.61e+03  3.03e+03
   5   6.2183936e+04   1.6015310e+06  9.28e+02  7.20e+02  3.88e+02
   6   9.1861450e+04   4.7551990e+05  1.77e+02  1.37e+02  7.41e+01
   7   1.0951431e+05   2.4254517e+05  5.44e+01  4.21e+01  2.27e+01
   8   1.1574392e+05   1.6645610e+05  1.23e+01  9.57e+00  5.16e+00
   9   1.1941048e+05   1.4161236e+05  4.76e+00  3.69e+00  1.99e+00
  10   1.2040657e+05   1.3011265e+05  8.74e-01  6.76e-01  3.65e-01
  11   1.2156239e+05   1.2387568e+05  1.53e-01  1.19e-01  6.40e-02
  12   1.2182010e+05   1.2247573e+05  3.96e-02  3.06e-02  1.65e-02
  13   1.2188051e+05   1.2213774e+05  1.56e-02  1.20e-02  6.49e-03
  14   1.2191487e+05   1.2194387e+05  1.66e-03  1.28e-03  6.92e-04
  15   1.2191846e+05   1.2192294e+05  2.49e-04  1.92e-04  1.04e-04
  16   1.2191895e+05   1.2191967e+05  3.98e-05  3.08e-05  1.66e-05
  17   1.2191904e+05   1.2191904e+05  2.59e-07  1.81e-07  9.72e-08
  18   1.2191904e+05   1.2191904e+05  5.33e-08  1.26e-09  5.39e-10
  19   1.2191904e+05   1.2191904e+05  6.03e-08  2.69e-10  2.19e-11
Barrier time = 0.03 sec. (9.45 ticks)

QP crossover.
  Primal and Dual:  Fixing 309 variables.
  Primal:  Pushed 157, exchanged 111.
  Dual  :  Pushed 22, exchanged 90.

Iteration log . . .
Iteration:     1    Objective     =        121919.039922
Total crossover time = 0.00 sec. (7.33 ticks)

Total time on 1 threads = 0.03 sec. (17.52 ticks)
Root relaxation solution time = 0.03 sec. (17.53 ticks)

        Nodes                                         Cuts/
   Node  Left     Objective  IInf  Best Integer    Best Bound    ItCnt     Gap

      0     0   121919.0399   124                 121919.0399       21         
      0     0   121919.0399   124                   Cuts: 312      710         
      0     0   121919.0399   124                   Cuts: 312     1050         
      0     0   121919.0399   124                   Cuts: 138     1265         
      0     0   121919.0399   124                    Cuts: 69     1321         
      0     2   121919.0399    84                 121919.0399     1321         
Elapsed time = 0.70 sec. (397.29 ticks, tree = 0.01 MB, solutions = 0)
     24    26   121918.6712    70                 121919.0399     5306         
     73    63   119884.7394    61                 121919.0399     9806         
                                                 Impl Bds: 13                  
    126   100   120164.4553    69                 121919.0399    14588         
                                                 Impl Bds: 21                  
    160   128   121919.0399    48                 121919.0399    18508         
                                                     Cuts: 12                  
    180   148   120462.7411    41                 121919.0399    23690         
    218   184    infeasible                       121919.0399    28326         
    283   235   116240.0443    15                 121919.0399    33577         
                                                 Impl Bds: 11                  
    355   285    infeasible                       121919.0399    37529         
                                                      Cuts: 3                  
    385   315   120486.3359    28                 121919.0399    38909         
    623   485   120738.9422    18                 121919.0399    55896         
                                                  Impl Bds: 8                  
Elapsed time = 6.80 sec. (3648.21 ticks, tree = 0.27 MB, solutions = 0)
    890   710   121919.0399    51                 121919.0399    74004         
                                                     Cuts: 13                  
   1060   848   121758.6108    14                 121919.0399    90523         
                                                  Impl Bds: 2                  
*  1110+  598                       119780.9088   121919.0399             1.79%
Found incumbent of value 119780.908849 after 10.38 sec. (5856.69 ticks)
   1268   702   120292.4735    22   119780.9088   121919.0399   104735    1.79%
                                                 Impl Bds: 13                  
*  1479+  674                       120211.1196   121919.0399             1.42%
                                                  Impl Bds: 5                  
Found incumbent of value 120211.119644 after 13.11 sec. (7495.32 ticks)
*  1479+  672                       120215.6513   121919.0399             1.42%
Found incumbent of value 120215.651254 after 13.19 sec. (7526.24 ticks)
   1479   674   121919.0399    31   120215.6513   121919.0399   117045    1.42%
*  1480+  647                       120295.2048   121919.0399             1.35%
Found incumbent of value 120295.204808 after 13.63 sec. (7737.33 ticks)
   1481   650   121899.1001    35   120295.2048   121919.0399   117316    1.35%
                                                      Cuts: 2                  

Performing restart 1

Repeating presolve.
Tried aggregator 2 times.
MIQP Presolve eliminated 37 rows and 37 columns.
MIQP Presolve modified 308 coefficients.
Aggregator did 16 substitutions.
Reduced MIQP has 797 rows, 806 columns, and 2382 nonzeros.
Reduced MIQP has 205 binaries, 0 generals, 0 SOSs, and 0 indicators.
Reduced MIQP objective Q matrix has 38 nonzeros.
Presolve time = 0.00 sec. (1.86 ticks)
Tried aggregator 1 time.
MIQP Presolve eliminated 25 rows and 25 columns.
MIQP Presolve modified 136 coefficients.
Reduced MIQP has 772 rows, 781 columns, and 2311 nonzeros.
Reduced MIQP has 184 binaries, 0 generals, 0 SOSs, and 0 indicators.
Reduced MIQP objective Q matrix has 38 nonzeros.
Presolve time = 0.00 sec. (1.36 ticks)
Tried aggregator 1 time.
MIQP Presolve modified 176 coefficients.
Reduced MIQP has 772 rows, 781 columns, and 2311 nonzeros.
Reduced MIQP has 184 binaries, 0 generals, 0 SOSs, and 0 indicators.
Reduced MIQP objective Q matrix has 38 nonzeros.
Presolve time = 0.00 sec. (0.99 ticks)
Represolve time = 0.05 sec. (11.81 ticks)
Tried aggregator 1 time.
QP Presolve eliminated 52 rows and 0 columns.
Aggregator did 121 substitutions.
Reduced QP has 923 rows, 660 columns, and 3068 nonzeros.
Reduced QP objective Q matrix has 38 nonzeros.
Presolve time = 0.00 sec. (0.79 ticks)
Parallel mode: none, using 1 thread for barrier

***NOTE: Found 6 dense columns.

Number of nonzeros in lower triangle of A*A' = 6611
Using Approximate Minimum Degree ordering
Total time for automatic ordering = 0.00 sec. (0.53 ticks)
Summary statistics for Cholesky factor:
  Rows in Factor            = 929
  Integer space required    = 3703
  Total non-zeros in factor = 21190
  Total FP ops to factor    = 708346
 Itn      Primal Obj        Dual Obj  Prim Inf Upper Inf  Dual Inf          
   0  -5.6020172e+08   5.7330954e+08  1.76e+05  9.12e+04  8.92e+06
   1  -1.0404574e+08   1.1065940e+08  7.59e+04  3.94e+04  3.85e+06
   2  -9.9960102e+06   1.2727511e+07  2.37e+04  1.23e+04  1.20e+06
   3  -8.4478395e+05   2.0333047e+06  7.23e+03  3.75e+03  3.67e+05
   4   3.3097206e+04   5.2386285e+05  1.91e+03  9.93e+02  9.71e+04
   5   1.0448728e+05   2.4798383e+05  5.81e+02  3.01e+02  2.95e+04
   6   1.0734357e+05   2.3003131e+05  4.19e+02  2.17e+02  2.13e+04
   7   1.1605480e+05   1.6514645e+05  1.26e+02  6.55e+01  6.41e+03
   8   1.1945948e+05   1.3885047e+05  3.23e+01  1.68e+01  1.64e+03
   9   1.2085120e+05   1.2863961e+05  8.33e+00  4.32e+00  4.23e+02
  10   1.2137423e+05   1.2504514e+05  1.78e+00  9.25e-01  9.06e+01
  11   1.2172253e+05   1.2304544e+05  1.73e-01  8.95e-02  8.76e+00
  12   1.2185974e+05   1.2228513e+05  5.49e-02  2.84e-02  2.78e+00
  13   1.2190203e+05   1.2203116e+05  1.64e-02  8.52e-03  8.34e-01
  14   1.2191638e+05   1.2193906e+05  2.79e-03  1.45e-03  1.42e-01
  15   1.2191899e+05   1.2191957e+05  5.51e-05  2.85e-05  2.79e-03
  16   1.2191904e+05   1.2191904e+05  3.99e-07  1.80e-07  1.76e-05
  17   1.2191904e+05   1.2191904e+05  4.46e-08  1.00e-09  9.60e-08
  18   1.2191904e+05   1.2191904e+05  3.83e-08  2.43e-11  4.95e-10
Barrier time = 0.06 sec. (18.81 ticks)

QP crossover.
  Primal and Dual:  Fixing 340 variables.
  Primal:  Pushed 157, exchanged 148.
  Dual  :  Pushed 21, exchanged 127.

Iteration log . . .
Iteration:     1    Objective     =        121919.039922
Total crossover time = 0.03 sec. (11.18 ticks)

Total time on 1 threads = 0.09 sec. (30.87 ticks)
   1590     0   121919.0399    66   120295.2048     Cuts: 201   129341    1.35%
   1590     0   121919.0399    66   120295.2048      Cuts: 92   129377    1.35%
   1590     0   121919.0399    66   120295.2048      Cuts: 32   129407    1.35%
   1590     0   121919.0399    66   120295.2048      Cuts: 23   129441    1.35%
   1590     0   121919.0399    66   120295.2048      Cuts: 13   129451    1.35%
*  1590+    0                       120316.7649   121919.0399             1.33%
Found incumbent of value 120316.764872 after 19.13 sec. (11061.70 ticks)
   1590     0        cutoff         120316.7649   121919.0399   129451    1.33%
   1590     2   121919.0399    62   120316.7649   121919.0399   129451    1.33%
   1690    77   121548.9412    45   120316.7649   121919.0399   132015    1.33%
   1790   143   121489.5581    26   120316.7649   121919.0399   134150    1.33%
   2109   350   121182.5188    56   120316.7649   121918.1703   142132    1.33%
   2423   527   121113.9110    22   120316.7649   121901.3194   153250    1.32%
Elapsed time = 28.95 sec. (17264.16 ticks, tree = 0.28 MB, solutions = 5)
   2755   731   121537.6636    51   120316.7649   121889.3576   164412    1.31%
                                                 Impl Bds: 13                  
   3068   843        cutoff         120316.7649   121852.8355   179131    1.28%
   3471  1037   120834.1471    49   120316.7649   121838.7645   193495    1.26%
                                                      Cuts: 2                  
   3808  1137   120428.0417    38   120316.7649   121790.3379   209542    1.22%
                                                 Impl Bds: 11                  
   4145  1202        cutoff         120316.7649   121755.5772   226763    1.20%
                                                      Cuts: 4                  
   4455  1232   120397.5130    53   120316.7649   121705.8032   243753    1.15%
   4754  1222   120725.1545    49   120316.7649   121642.8818   260381    1.10%
                                                     Cuts: 17                  
   4996  1202        cutoff         120316.7649   121601.7331   276137    1.07%
                                                  Impl Bds: 5                  
   5293  1156   120972.3606    38   120316.7649   121498.4883   292871    0.98%
   5648  1150        cutoff         120316.7649   121425.9605   312213    0.92%
Elapsed time = 46.84 sec. (26830.52 ticks, tree = 0.62 MB, solutions = 5)
   5927  1057   121202.6535    67   120316.7649   121309.1336   328326    0.82%
   6329   990   120990.4615    37   120316.7649   121092.5309   344134    0.64%
   6740   839   120543.0885    64   120316.7649   120754.7816   358188    0.36%
   7261   759   120418.5562    32   120316.7649   120549.1544   372259    0.19%
   8078  1146        cutoff         120316.7649   120517.5003   385861    0.17%
   8838  1410        cutoff         120316.7649   120495.2539   399511    0.15%
   9568  1601   120396.2638    27   120316.7649   120470.3689   411753    0.13%
  10333  1793   120417.3967    30   120316.7649   120454.7664   423651    0.11%
  11157  2134   120394.8952    27   120316.7649   120444.0973   435236    0.11%
                                                  Flowcuts: 1                  
  11450  2270        cutoff         120316.7649   120441.2177   439427    0.10%
Elapsed time = 68.63 sec. (38696.08 ticks, tree = 1.25 MB, solutions = 5)

Performing restart 2

Repeating presolve.
Tried aggregator 2 times.
MIQP Presolve eliminated 19 rows and 19 columns.
MIQP Presolve modified 4 coefficients.
Aggregator did 15 substitutions.
Reduced MIQP has 738 rows, 747 columns, and 2249 nonzeros.
Reduced MIQP has 182 binaries, 0 generals, 0 SOSs, and 0 indicators.
Reduced MIQP objective Q matrix has 38 nonzeros.
Presolve time = 0.01 sec. (1.94 ticks)
Tried aggregator 1 time.
MIQP Presolve modified 4 coefficients.
Reduced MIQP has 738 rows, 747 columns, and 2249 nonzeros.
Reduced MIQP has 182 binaries, 0 generals, 0 SOSs, and 0 indicators.
Reduced MIQP objective Q matrix has 38 nonzeros.
Presolve time = 0.02 sec. (0.97 ticks)
Represolve time = 0.03 sec. (7.02 ticks)
Tried aggregator 1 time.
QP Presolve eliminated 12 rows and 0 columns.
Aggregator did 120 substitutions.
Reduced QP has 743 rows, 627 columns, and 2400 nonzeros.
Reduced QP objective Q matrix has 38 nonzeros.
Presolve time = 0.00 sec. (0.64 ticks)
Parallel mode: none, using 1 thread for barrier

***NOTE: Found 8 dense columns.

Number of nonzeros in lower triangle of A*A' = 3799
Using Approximate Minimum Degree ordering
Total time for automatic ordering = 0.00 sec. (0.39 ticks)
Summary statistics for Cholesky factor:
  Rows in Factor            = 751
  Integer space required    = 2527
  Total non-zeros in factor = 13249
  Total FP ops to factor    = 310705
 Itn      Primal Obj        Dual Obj  Prim Inf Upper Inf  Dual Inf          
   0  -3.0854248e+08   3.1724402e+08  1.14e+05  7.03e+04  5.61e+06
   1  -7.9606621e+07   8.4758805e+07  5.82e+04  3.58e+04  2.86e+06
   2  -3.3151126e+06   5.0329784e+06  1.22e+04  7.49e+03  5.98e+05
   3  -1.1353749e+05   8.6339303e+05  3.04e+03  1.87e+03  1.50e+05
   4   5.9672790e+04   4.3800914e+05  1.35e+03  8.30e+02  6.64e+04
   5   9.8884641e+04   2.9739508e+05  5.19e+02  3.19e+02  2.55e+04
   6   1.1002478e+05   2.1945008e+05  2.26e+02  1.39e+02  1.11e+04
   7   1.1313441e+05   1.9199850e+05  1.23e+02  7.55e+01  6.04e+03
   8   1.1899094e+05   1.4180143e+05  3.12e+01  1.92e+01  1.54e+03
   9   1.2009610e+05   1.3311777e+05  8.89e+00  5.47e+00  4.38e+02
  10   1.2112382e+05   1.2674492e+05  3.40e+00  2.09e+00  1.67e+02
  11   1.2152652e+05   1.2403897e+05  8.27e-01  5.09e-01  4.07e+01
  12   1.2181248e+05   1.2249928e+05  1.16e-01  7.14e-02  5.71e+00
  13   1.2187501e+05   1.2217979e+05  5.15e-02  3.17e-02  2.53e+00
  14   1.2191409e+05   1.2194973e+05  5.46e-03  3.36e-03  2.69e-01
  15   1.2191821e+05   1.2192504e+05  1.02e-03  6.29e-04  5.03e-02
  16   1.2191902e+05   1.2191923e+05  2.64e-05  1.63e-05  1.30e-03
  17   1.2191904e+05   1.2191904e+05  1.77e-07  8.39e-08  6.72e-06
  18   1.2191904e+05   1.2191904e+05  5.39e-08  4.31e-10  3.41e-08
  19   1.2191904e+05   1.2191904e+05  5.45e-08  7.05e-12  1.86e-10
Barrier time = 0.03 sec. (13.39 ticks)

QP crossover.
  Primal and Dual:  Fixing 295 variables.
  Primal:  Pushed 151, exchanged 130.
  Dual  :  Pushed 8, exchanged 109.

Iteration log . . .
Iteration:     1    Objective     =        121919.039922
Total crossover time = 0.02 sec. (9.57 ticks)

Total time on 1 threads = 0.05 sec. (23.66 ticks)
  11453     0   121919.0399    77   120316.7649     Cuts: 272   439590    0.10%
  11453     0   121919.0399    77   120316.7649      Cuts: 56   439640    0.10%
  11453     0   121919.0399    77   120316.7649     Cuts: 116   439678    0.10%
  11453     0   121919.0399    77   120316.7649      Cuts: 84   439728    0.10%
  11453     0   121919.0399    77   120316.7649      Cuts: 52   439758    0.10%
  11453     0   121919.0399    77   120316.7649      Cuts: 47   439794    0.10%
  11453     0   121919.0399    77   120316.7649       Cuts: 5   439806    0.10%
  11453     0   121919.0399    77   120316.7649   MIRcuts: 15   439818    0.10%

Repeating presolve.
Tried aggregator 2 times.
MIQP Presolve eliminated 2 rows and 2 columns.
Aggregator did 1 substitutions.
Reduced MIQP has 735 rows, 744 columns, and 2246 nonzeros.
Reduced MIQP has 181 binaries, 0 generals, 0 SOSs, and 0 indicators.
Reduced MIQP objective Q matrix has 38 nonzeros.
Presolve time = 0.00 sec. (1.19 ticks)
Tried aggregator 1 time.
Reduced MIQP has 735 rows, 744 columns, and 2246 nonzeros.
Reduced MIQP has 181 binaries, 0 generals, 0 SOSs, and 0 indicators.
Reduced MIQP objective Q matrix has 38 nonzeros.
Presolve time = 0.00 sec. (0.96 ticks)
Represolve time = 0.03 sec. (7.60 ticks)
Tried aggregator 1 time.
QP Presolve eliminated 3 rows and 0 columns.
Aggregator did 125 substitutions.
Reduced QP has 702 rows, 619 columns, and 2513 nonzeros.
Reduced QP objective Q matrix has 38 nonzeros.
Presolve time = 0.00 sec. (0.64 ticks)
Parallel mode: none, using 1 thread for barrier

***NOTE: Found 8 dense columns.

Number of nonzeros in lower triangle of A*A' = 3926
Using Approximate Minimum Degree ordering
Total time for automatic ordering = 0.00 sec. (0.43 ticks)
Summary statistics for Cholesky factor:
  Rows in Factor            = 710
  Integer space required    = 2687
  Total non-zeros in factor = 13251
  Total FP ops to factor    = 353325
 Itn      Primal Obj        Dual Obj  Prim Inf Upper Inf  Dual Inf          
   0  -5.9395141e+08   6.0544752e+08  1.23e+05  7.63e+04  1.02e+07
   1  -9.4515343e+07   1.0012748e+08  4.92e+04  3.06e+04  4.08e+06
   2  -1.2220790e+07   1.4970590e+07  1.79e+04  1.11e+04  1.49e+06
   3  -3.3847091e+05   1.2619664e+06  3.50e+03  2.18e+03  2.91e+05
   4  -5.7098632e+04   7.7209414e+05  2.09e+03  1.30e+03  1.74e+05
   5   8.2249506e+04   4.0375976e+05  7.69e+02  4.77e+02  6.38e+04
   6   1.0460892e+05   2.7823788e+05  3.13e+02  1.95e+02  2.60e+04
   7   1.1138627e+05   2.1428946e+05  1.34e+02  8.30e+01  1.11e+04
   8   1.1581889e+05   1.6879101e+05  3.83e+01  2.38e+01  3.18e+03
   9   1.1935593e+05   1.3944831e+05  1.19e+01  7.40e+00  9.89e+02
  10   1.2072590e+05   1.2905656e+05  2.24e+00  1.39e+00  1.86e+02
  11   1.2124942e+05   1.2570592e+05  6.96e-01  4.32e-01  5.78e+01
  12   1.2157447e+05   1.2376091e+05  1.94e-01  1.20e-01  1.61e+01
  13   1.2181980e+05   1.2246905e+05  4.49e-02  2.79e-02  3.73e+00
  14   1.2187824e+05   1.2216433e+05  1.98e-02  1.23e-02  1.64e+00
  15   1.2191371e+05   1.2195319e+05  2.54e-03  1.58e-03  2.11e-01
  16   1.2191817e+05   1.2192547e+05  4.59e-04  2.85e-04  3.81e-02
  17   1.2191900e+05   1.2191936e+05  2.05e-05  1.27e-05  1.70e-03
  18   1.2191904e+05   1.2191904e+05  1.41e-07  7.86e-08  1.05e-05
  19   1.2191904e+05   1.2191904e+05  2.34e-08  4.15e-10  5.49e-08
  20   1.2191904e+05   1.2191904e+05  3.97e-08  5.91e-12  2.93e-10
Barrier time = 0.03 sec. (14.29 ticks)

QP crossover.
  Primal and Dual:  Fixing 298 variables.
  Primal:  Pushed 160, exchanged 123.
  Dual  :  Pushed 8, exchanged 102.

Iteration log . . .
Iteration:     1    Objective     =        121919.039922
Total crossover time = 0.02 sec. (8.67 ticks)

Total time on 1 threads = 0.05 sec. (23.66 ticks)
  11453     0   121919.0399    57   120316.7649     Cuts: 224   439945    0.10%
  11453     0   121919.0399    57   120316.7649      Cuts: 43   439975    0.10%
  11453     0   121919.0399    57   120316.7649      Cuts: 25   439993    0.10%
  11453     0   121919.0399    57   120316.7649      Cuts: 14   440003    0.10%
  11453     0   121919.0399    57   120316.7649    MIRcuts: 5   440015    0.10%
  11453     0   121919.0399    57   120316.7649      Cuts: 10   440021    0.10%
  11453     2   121919.0399    53   120316.7649   120441.1362   440021    0.10%
  11532    36   120328.0811    27   120316.7649   120441.1362   443325    0.10%
  11573    58   121155.5593    46   120316.7649   120441.1362   444841    0.10%
  11664    89   121917.3483    43   120316.7649   120441.1362   449781    0.10%
  11855   171   121914.9570    48   120316.7649   120441.1362   455474    0.10%
  12055   237   120384.4079     9   120316.7649   120441.1362   463364    0.10%
  12323   334   121880.4337    54   120316.7649   120441.1362   471270    0.10%
  12592   389   119687.6197    47   120316.7649   120441.1362   481816    0.10%
                                                     Cuts: 14                  
  12844   414   121639.3351    54   120316.7649   120441.1362   493253    0.10%
                                                     Cuts: 11                  
  13106   461   121568.8518    38   120316.7649   120441.1362   502437    0.10%
Elapsed time = 85.84 sec. (49213.66 ticks, tree = 0.22 MB, solutions = 5)
  13409   522        cutoff         120316.7649   120441.1362   513484    0.10%
  13675   534   121703.1777    49   120316.7649   120441.1362   523098    0.10%
  13963   556   121481.1823    33   120316.7649   120441.1362   533396    0.10%
  14277   603   120479.2474    32   120316.7649   120441.1362   545697    0.10%
                                                 Impl Bds: 18                  
  14579   595   121263.6457    42   120316.7649   120441.1362   559449    0.10%
                                                  Impl Bds: 5                  
  14857   554   121392.3459    23   120316.7649   120441.1362   574730    0.10%
  15116   463   120349.2090    30   120316.7649   120441.1362   588930    0.10%
                                                 Impl Bds: 11                  
  15486   351        cutoff         120316.7649   120441.1362   603235    0.10%
                                                     Cuts: 11                  
  16110   444        cutoff         120316.7649   120441.1362   613976    0.10%
  16854   667   120428.6368    16   120316.7649   120428.6368   625936    0.09%
Elapsed time = 101.95 sec. (58768.40 ticks, tree = 0.35 MB, solutions = 5)
  17549   600   120316.7740     4   120316.7649   120401.1067   636376    0.07%

GUB cover cuts applied:  1
Clique cuts applied:  8
Cover cuts applied:  3
Implied bound cuts applied:  81
Flow cuts applied:  26
Mixed integer rounding cuts applied:  24
Gomory fractional cuts applied:  1

Root node processing (before b&c):
  Real time             =    0.70 sec. (397.36 ticks)
Sequential b&c:
  Real time             =  104.69 sec. (60289.43 ticks)
                          ------------
Total (root+branch&cut) =  105.39 sec. (60686.79 ticks)
MIQP status(102): integer optimal, tolerance
Cplex Time: 105.39sec (det. 60686.80 ticks)
Fixing integer variables, and solving final QP..
Version identifier: 12.10.0.0 | 2019-11-26 | 843d4de2ae
CPXPARAM_Advance                                 2
CPXPARAM_Threads                                 1
CPXPARAM_Parallel                                1
CPXPARAM_MIP_Display                             4
CPXPARAM_Simplex_Limits_Iterations               2000000000
CPXPARAM_MIP_Limits_Nodes                        65000000
CPXPARAM_TimeLimit                               150000
CPXPARAM_Tune_TimeLimit                          30000
CPXPARAM_MIP_Tolerances_AbsMIPGap                0
CPXPARAM_MIP_Tolerances_MIPGap                   0.00050000000000000001
CPXPARAM_WorkDir                                 "C:\Users\a.eicke\Documents\Locational-investment-signals\Three node models\225b\"
Tried aggregator 1 time.
QP Presolve eliminated 1057 rows and 733 columns.
Aggregator did 177 substitutions.
Reduced QP has 190 rows, 178 columns, and 677 nonzeros.
Reduced QP objective Q matrix has 37 nonzeros.
Presolve time = 0.00 sec. (1.18 ticks)
Parallel mode: none, using 1 thread for barrier

***NOTE: Found 8 dense columns.

Number of nonzeros in lower triangle of A*A' = 318
Using Approximate Minimum Degree ordering
Total time for automatic ordering = 0.00 sec. (0.02 ticks)
Summary statistics for Cholesky factor:
  Rows in Factor            = 198
  Integer space required    = 386
  Total non-zeros in factor = 1875
  Total FP ops to factor    = 21651
 Itn      Primal Obj        Dual Obj  Prim Inf Upper Inf  Dual Inf          
   0   3.3915453e+04   1.3150274e+07  2.21e+03  1.30e+02  1.77e+05
   1   6.6405926e+04   5.1460817e+06  7.56e+02  4.45e+01  6.05e+04
   2   8.7006885e+04   1.2258001e+06  7.92e+01  4.68e+00  6.34e+03
   3   1.0266636e+05   2.4644084e+05  7.85e+00  4.63e-01  6.35e+02
   4   1.1518123e+05   1.4572244e+05  1.08e+00  6.36e-02  8.73e+01
   5   1.1860106e+05   1.2713920e+05  2.01e-01  1.19e-02  2.15e+01
   6   1.1971198e+05   1.2229404e+05  5.23e-02  3.09e-03  9.12e+00
   7   1.2010481e+05   1.2104396e+05  1.22e-02  7.22e-04  2.37e+00
   8   1.2024880e+05   1.2054515e+05  1.14e-03  6.70e-05  2.40e-01
   9   1.2029279e+05   1.2039839e+05  4.00e-04  2.36e-05  8.53e-02
  10   1.2031149e+05   1.2033470e+05  8.58e-05  5.07e-06  1.86e-02
  11   1.2031639e+05   1.2031770e+05  4.33e-06  2.56e-07  9.14e-04
  12   1.2031674e+05   1.2031678e+05  5.75e-08  3.40e-09  1.30e-05
  13   1.2031676e+05   1.2031677e+05  9.23e-09  3.76e-11  2.18e-07
  14   1.2031676e+05   1.2031676e+05  1.49e-06  6.42e-13  4.26e-10
Barrier time = 0.00 sec. (3.33 ticks)

Total time on 1 threads = 0.00 sec. (3.33 ticks)
QP status(1): optimal
Cplex Time: 0.00sec (det. 3.33 ticks)

Solution satisfies tolerances.

MIP Solution:       120316.764872    (645946 iterations, 18244 nodes)
Final Solve:        120316.764865    (0 iterations)

Best possible:      120376.631676
Absolute gap:           59.866804
Relative gap:            0.000497

--- Restarting execution
--- with_locational_instrument.gms(260) 2 Mb
--- Reading solution for model LOCI
--- Executing after solve: elapsed 0:01:45.648
--- with_locational_instrument.gms(290) 3 Mb
--- GDX File C:\Users\a.eicke\Documents\Locational-investment-signals\Three node models\Output/with_instrument.gdx
*** Status: Normal completion
--- Job with_locational_instrument.gms Stop 01/11/22 14:42:18 elapsed 0:01:45.652
